90 4005
1 2 210
1 3 87
1 4 16
1 5 98
1 6 151
1 7 28
1 8 252
1 9 221
1 10 230
1 11 92
1 12 262
1 13 146
1 14 254
1 15 25
1 16 81
1 17 107
1 18 241
1 19 138
1 20 212
1 21 122
1 22 172
1 23 203
1 24 182
1 25 99
1 26 146
1 27 152
1 28 103
1 29 159
1 30 106
1 31 155
1 32 116
1 33 58
1 34 177
1 35 257
1 36 97
1 37 169
1 38 185
1 39 76
1 40 140
1 41 119
1 42 262
1 43 217
1 44 205
1 45 267
1 46 262
1 47 115
1 48 163
1 49 138
1 50 249
1 51 26
1 52 154
1 53 120
1 54 51
1 55 168
1 56 29
1 57 133
1 58 93
1 59 9
1 60 197
1 61 120
1 62 178
1 63 16
1 64 1
1 65 219
1 66 158
1 67 261
1 68 60
1 69 150
1 70 262
1 71 189
1 72 148
1 73 254
1 74 111
1 75 78
1 76 27
1 77 172
1 78 243
1 79 155
1 80 246
1 81 78
1 82 123
1 83 125
1 84 260
1 85 262
1 86 259
1 87 146
1 88 166
1 89 236
1 90 128
2 3 203
2 4 211
2 5 197
2 6 210
2 7 191
2 8 98
2 9 30
2 10 250
2 11 158
2 12 67
2 13 65
2 14 19
2 15 228
2 16 252
2 17 253
2 18 144
2 19 163
2 20 23
2 21 246
2 22 118
2 23 5
2 24 85
2 25 221
2 26 157
2 27 168
2 28 47
2 29 77
2 30 225
2 31 57
2 32 65
2 33 42
2 34 236
2 35 11
2 36 87
2 37 13
2 38 83
2 39 5
2 40 132
2 41 23
2 42 128
2 43 142
2 44 158
2 45 165
2 46 185
2 47 66
2 48 260
2 49 117
2 50 236
2 51 25
2 52 127
2 53 2
2 54 108
2 55 214
2 56 80
2 57 47
2 58 52
2 59 86
2 60 89
2 61 13
2 62 255
2 63 196
2 64 12
2 65 23
2 66 50
2 67 18
2 68 29
2 69 254
2 70 133
2 71 181
2 72 71
2 73 218
2 74 147
2 75 92
2 76 73
2 77 0
2 78 193
2 79 154
2 80 41
2 81 156
2 82 263
2 83 95
2 84 42
2 85 18
2 86 254
2 87 263
2 88 221
2 89 214
2 90 191
3 4 153
3 5 176
3 6 133
3 7 12
3 8 161
3 9 196
3 10 261
3 11 150
3 12 259
3 13 11
3 14 121
3 15 176
3 16 117
3 17 201
3 18 58
3 19 265
3 20 263
3 21 177
3 22 60
3 23 230
3 24 49
3 25 247
3 26 17
3 27 10
3 28 110
3 29 104
3 30 66
3 31 1
3 32 230
3 33 28
3 34 156
3 35 66
3 36 74
3 37 234
3 38 154
3 39 141
3 40 106
3 41 18
3 42 68
3 43 145
3 44 174
3 45 259
3 46 6
3 47 129
3 48 223
3 49 75
3 50 151
3 51 9
3 52 212
3 53 49
3 54 3
3 55 187
3 56 108
3 57 154
3 58 64
3 59 38
3 60 239
3 61 24
3 62 234
3 63 257
3 64 8
3 65 237
3 66 243
3 67 206
3 68 58
3 69 226
3 70 75
3 71 224
3 72 231
3 73 24
3 74 153
3 75 138
3 76 197
3 77 49
3 78 193
3 79 255
3 80 42
3 81 94
3 82 144
3 83 236
3 84 12
3 85 170
3 86 211
3 87 31
3 88 94
3 89 235
3 90 176
4 5 220
4 6 86
4 7 110
4 8 141
4 9 66
4 10 85
4 11 173
4 12 209
4 13 125
4 14 257
4 15 218
4 16 174
4 17 189
4 18 256
4 19 76
4 20 196
4 21 230
4 22 145
4 23 49
4 24 22
4 25 56
4 26 217
4 27 196
4 28 15
4 29 64
4 30 173
4 31 6
4 32 158
4 33 16
4 34 163
4 35 124
4 36 0
4 37 240
4 38 5
4 39 184
4 40 197
4 41 51
4 42 117
4 43 135
4 44 267
4 45 256
4 46 67
4 47 250
4 48 266
4 49 190
4 50 253
4 51 185
4 52 90
4 53 210
4 54 23
4 55 264
4 56 178
4 57 148
4 58 15
4 59 234
4 60 146
4 61 143
4 62 223
4 63 239
4 64 262
4 65 222
4 66 233
4 67 211
4 68 183
4 69 122
4 70 246
4 71 9
4 72 257
4 73 133
4 74 63
4 75 26
4 76 110
4 77 246
4 78 74
4 79 258
4 80 85
4 81 216
4 82 242
4 83 25
4 84 154
4 85 241
4 86 43
4 87 53
4 88 206
4 89 159
4 90 70
5 6 94
5 7 171
5 8 251
5 9 85
5 10 107
5 11 85
5 12 103
5 13 239
5 14 241
5 15 44
5 16 200
5 17 216
5 18 52
5 19 79
5 20 30
5 21 46
5 22 167
5 23 167
5 24 79
5 25 17
5 26 26
5 27 70
5 28 52
5 29 214
5 30 259
5 31 158
5 32 98
5 33 194
5 34 93
5 35 229
5 36 5
5 37 30
5 38 102
5 39 96
5 40 46
5 41 233
5 42 199
5 43 247
5 44 116
5 45 48
5 46 108
5 47 155
5 48 106
5 49 63
5 50 25
5 51 180
5 52 217
5 53 249
5 54 185
5 55 63
5 56 21
5 57 97
5 58 64
5 59 3
5 60 110
5 61 148
5 62 3
5 63 98
5 64 103
5 65 12
5 66 218
5 67 205
5 68 69
5 69 220
5 70 58
5 71 94
5 72 176
5 73 141
5 74 140
5 75 20
5 76 110
5 77 37
5 78 250
5 79 3
5 80 156
5 81 73
5 82 153
5 83 60
5 84 94
5 85 66
5 86 175
5 87 237
5 88 45
5 89 128
5 90 193
6 7 244
6 8 86
6 9 198
6 10 142
6 11 132
6 12 45
6 13 49
6 14 40
6 15 179
6 16 131
6 17 156
6 18 198
6 19 107
6 20 171
6 21 34
6 22 134
6 23 164
6 24 51
6 25 99
6 26 24
6 27 233
6 28 181
6 29 162
6 30 92
6 31 227
6 32 15
6 33 70
6 34 45
6 35 266
6 36 105
6 37 238
6 38 165
6 39 74
6 40 125
6 41 126
6 42 219
6 43 68
6 44 145
6 45 92
6 46 196
6 47 176
6 48 14
6 49 197
6 50 244
6 51 5
6 52 166
6 53 42
6 54 83
6 55 24
6 56 114
6 57 43
6 58 61
6 59 162
6 60 196
6 61 7
6 62 121
6 63 223
6 64 228
6 65 230
6 66 234
6 67 237
6 68 173
6 69 209
6 70 144
6 71 94
6 72 196
6 73 62
6 74 102
6 75 255
6 76 66
6 77 186
6 78 9
6 79 18
6 80 153
6 81 73
6 82 164
6 83 201
6 84 167
6 85 112
6 86 143
6 87 150
6 88 159
6 89 209
6 90 62
7 8 124
7 9 38
7 10 123
7 11 174
7 12 94
7 13 253
7 14 161
7 15 169
7 16 46
7 17 206
7 18 1
7 19 135
7 20 70
7 21 115
7 22 70
7 23 263
7 24 77
7 25 246
7 26 75
7 27 24
7 28 67
7 29 178
7 30 86
7 31 140
7 32 37
7 33 118
7 34 147
7 35 76
7 36 77
7 37 98
7 38 169
7 39 229
7 40 209
7 41 32
7 42 221
7 43 9
7 44 42
7 45 20
7 46 110
7 47 36
7 48 90
7 49 192
7 50 50
7 51 56
7 52 170
7 53 118
7 54 167
7 55 262
7 56 140
7 57 216
7 58 210
7 59 165
7 60 129
7 61 72
7 62 134
7 63 187
7 64 235
7 65 143
7 66 239
7 67 76
7 68 214
7 69 34
7 70 256
7 71 23
7 72 172
7 73 200
7 74 229
7 75 258
7 76 251
7 77 116
7 78 237
7 79 46
7 80 268
7 81 143
7 82 32
7 83 267
7 84 102
7 85 11
7 86 44
7 87 122
7 88 37
7 89 69
7 90 111
8 9 179
8 10 268
8 11 264
8 12 101
8 13 135
8 14 89
8 15 245
8 16 71
8 17 57
8 18 96
8 19 173
8 20 74
8 21 180
8 22 15
8 23 83
8 24 246
8 25 137
8 26 33
8 27 161
8 28 184
8 29 152
8 30 31
8 31 16
8 32 41
8 33 60
8 34 115
8 35 213
8 36 183
8 37 242
8 38 104
8 39 164
8 40 120
8 41 19
8 42 261
8 43 262
8 44 141
8 45 199
8 46 86
8 47 2
8 48 235
8 49 53
8 50 138
8 51 195
8 52 261
8 53 161
8 54 8
8 55 201
8 56 35
8 57 102
8 58 1
8 59 39
8 60 233
8 61 177
8 62 66
8 63 203
8 64 4
8 65 130
8 66 260
8 67 84
8 68 23
8 69 260
8 70 51
8 71 190
8 72 145
8 73 245
8 74 250
8 75 107
8 76 74
8 77 188
8 78 110
8 79 151
8 80 58
8 81 237
8 82 142
8 83 147
8 84 156
8 85 213
8 86 246
8 87 108
8 88 60
8 89 224
8 90 175
9 10 32
9 11 32
9 12 40
9 13 1
9 14 43
9 15 182
9 16 61
9 17 123
9 18 215
9 19 217
9 20 265
9 21 136
9 22 54
9 23 205
9 24 111
9 25 83
9 26 214
9 27 235
9 28 2
9 29 194
9 30 235
9 31 115
9 32 24
9 33 262
9 34 169
9 35 209
9 36 235
9 37 58
9 38 102
9 39 176
9 40 188
9 41 261
9 42 25
9 43 168
9 44 214
9 45 186
9 46 262
9 47 213
9 48 85
9 49 58
9 50 85
9 51 19
9 52 44
9 53 194
9 54 79
9 55 123
9 56 98
9 57 265
9 58 0
9 59 231
9 60 63
9 61 164
9 62 83
9 63 181
9 64 13
9 65 52
9 66 245
9 67 176
9 68 31
9 69 129
9 70 172
9 71 240
9 72 147
9 73 243
9 74 81
9 75 75
9 76 42
9 77 15
9 78 21
9 79 233
9 80 217
9 81 22
9 82 244
9 83 98
9 84 268
9 85 186
9 86 87
9 87 84
9 88 266
9 89 101
9 90 82
10 11 105
10 12 86
10 13 1
10 14 251
10 15 158
10 16 51
10 17 214
10 18 186
10 19 261
10 20 255
10 21 131
10 22 72
10 23 60
10 24 108
10 25 189
10 26 127
10 27 70
10 28 240
10 29 175
10 30 218
10 31 172
10 32 128
10 33 206
10 34 99
10 35 127
10 36 146
10 37 44
10 38 15
10 39 216
10 40 201
10 41 59
10 42 259
10 43 161
10 44 118
10 45 117
10 46 108
10 47 39
10 48 53
10 49 213
10 50 143
10 51 167
10 52 19
10 53 74
10 54 96
10 55 23
10 56 260
10 57 44
10 58 4
10 59 2
10 60 26
10 61 207
10 62 227
10 63 4
10 64 142
10 65 77
10 66 97
10 67 56
10 68 123
10 69 26
10 70 262
10 71 97
10 72 163
10 73 26
10 74 215
10 75 145
10 76 225
10 77 215
10 78 43
10 79 13
10 80 195
10 81 170
10 82 211
10 83 192
10 84 79
10 85 101
10 86 103
10 87 79
10 88 36
10 89 107
10 90 158
11 12 185
11 13 196
11 14 2
11 15 194
11 16 29
11 17 96
11 18 106
11 19 144
11 20 149
11 21 265
11 22 88
11 23 187
11 24 108
11 25 197
11 26 41
11 27 241
11 28 65
11 29 198
11 30 17
11 31 248
11 32 97
11 33 147
11 34 33
11 35 169
11 36 212
11 37 224
11 38 166
11 39 29
11 40 193
11 41 219
11 42 6
11 43 155
11 44 117
11 45 258
11 46 32
11 47 114
11 48 82
11 49 100
11 50 252
11 51 88
11 52 70
11 53 218
11 54 138
11 55 129
11 56 125
11 57 162
11 58 219
11 59 79
11 60 113
11 61 192
11 62 61
11 63 193
11 64 21
11 65 24
11 66 226
11 67 28
11 68 232
11 69 17
11 70 170
11 71 221
11 72 184
11 73 257
11 74 127
11 75 256
11 76 255
11 77 75
11 78 198
11 79 91
11 80 107
11 81 37
11 82 62
11 83 43
11 84 269
11 85 106
11 86 226
11 87 238
11 88 175
11 89 228
11 90 224
12 13 152
12 14 187
12 15 147
12 16 235
12 17 194
12 18 62
12 19 153
12 20 239
12 21 156
12 22 42
12 23 45
12 24 80
12 25 176
12 26 118
12 27 252
12 28 133
12 29 109
12 30 63
12 31 93
12 32 109
12 33 221
12 34 167
12 35 186
12 36 194
12 37 3
12 38 232
12 39 240
12 40 90
12 41 159
12 42 81
12 43 238
12 44 231
12 45 161
12 46 154
12 47 150
12 48 66
12 49 80
12 50 243
12 51 125
12 52 17
12 53 26
12 54 240
12 55 160
12 56 143
12 57 78
12 58 250
12 59 167
12 60 74
12 61 192
12 62 180
12 63 221
12 64 107
12 65 151
12 66 87
12 67 245
12 68 45
12 69 18
12 70 24
12 71 196
12 72 24
12 73 233
12 74 240
12 75 15
12 76 52
12 77 27
12 78 17
12 79 195
12 80 182
12 81 232
12 82 49
12 83 134
12 84 66
12 85 62
12 86 239
12 87 26
12 88 170
12 89 12
12 90 51
13 14 3
13 15 111
13 16 111
13 17 90
13 18 25
13 19 20
13 20 182
13 21 68
13 22 266
13 23 173
13 24 150
13 25 63
13 26 264
13 27 155
13 28 233
13 29 23
13 30 80
13 31 25
13 32 44
13 33 257
13 34 145
13 35 216
13 36 58
13 37 124
13 38 147
13 39 187
13 40 34
13 41 32
13 42 247
13 43 35
13 44 43
13 45 162
13 46 218
13 47 57
13 48 139
13 49 156
13 50 170
13 51 205
13 52 198
13 53 117
13 54 193
13 55 27
13 56 231
13 57 229
13 58 28
13 59 96
13 60 185
13 61 17
13 62 193
13 63 100
13 64 2
13 65 225
13 66 48
13 67 148
13 68 261
13 69 249
13 70 247
13 71 216
13 72 56
13 73 178
13 74 101
13 75 55
13 76 17
13 77 203
13 78 158
13 79 70
13 80 112
13 81 73
13 82 27
13 83 19
13 84 196
13 85 70
13 86 241
13 87 29
13 88 221
13 89 151
13 90 169
14 15 99
14 16 195
14 17 263
14 18 91
14 19 235
14 20 2
14 21 77
14 22 243
14 23 45
14 24 142
14 25 264
14 26 133
14 27 14
14 28 155
14 29 28
14 30 103
14 31 142
14 32 38
14 33 229
14 34 24
14 35 125
14 36 114
14 37 206
14 38 209
14 39 213
14 40 204
14 41 79
14 42 229
14 43 43
14 44 221
14 45 185
14 46 140
14 47 133
14 48 55
14 49 16
14 50 130
14 51 216
14 52 5
14 53 75
14 54 46
14 55 203
14 56 258
14 57 194
14 58 28
14 59 269
14 60 189
14 61 184
14 62 177
14 63 120
14 64 251
14 65 252
14 66 74
14 67 145
14 68 63
14 69 136
14 70 236
14 71 173
14 72 212
14 73 198
14 74 217
14 75 159
14 76 160
14 77 17
14 78 48
14 79 249
14 80 263
14 81 15
14 82 164
14 83 203
14 84 111
14 85 41
14 86 97
14 87 171
14 88 235
14 89 235
14 90 129
15 16 93
15 17 204
15 18 152
15 19 165
15 20 92
15 21 205
15 22 128
15 23 175
15 24 27
15 25 48
15 26 175
15 27 212
15 28 83
15 29 217
15 30 94
15 31 227
15 32 108
15 33 79
15 34 123
15 35 177
15 36 244
15 37 93
15 38 98
15 39 51
15 40 112
15 41 166
15 42 143
15 43 37
15 44 165
15 45 2
15 46 175
15 47 11
15 48 26
15 49 13
15 50 212
15 51 21
15 52 92
15 53 20
15 54 148
15 55 210
15 56 39
15 57 99
15 58 23
15 59 230
15 60 131
15 61 132
15 62 240
15 63 40
15 64 75
15 65 227
15 66 229
15 67 37
15 68 118
15 69 9
15 70 113
15 71 234
15 72 257
15 73 65
15 74 175
15 75 251
15 76 59
15 77 48
15 78 202
15 79 111
15 80 18
15 81 94
15 82 158
15 83 124
15 84 172
15 85 187
15 86 268
15 87 224
15 88 216
15 89 101
15 90 119
16 17 229
16 18 231
16 19 206
16 20 96
16 21 39
16 22 237
16 23 196
16 24 96
16 25 8
16 26 119
16 27 233
16 28 151
16 29 184
16 30 236
16 31 11
16 32 1
16 33 57
16 34 221
16 35 68
16 36 5
16 37 123
16 38 177
16 39 130
16 40 152
16 41 38
16 42 28
16 43 163
16 44 72
16 45 87
16 46 16
16 47 179
16 48 253
16 49 40
16 50 199
16 51 216
16 52 93
16 53 119
16 54 88
16 55 63
16 56 122
16 57 136
16 58 264
16 59 142
16 60 31
16 61 172
16 62 101
16 63 61
16 64 66
16 65 253
16 66 117
16 67 256
16 68 68
16 69 150
16 70 71
16 71 108
16 72 42
16 73 111
16 74 51
16 75 39
16 76 234
16 77 97
16 78 101
16 79 71
16 80 13
16 81 71
16 82 220
16 83 70
16 84 110
16 85 121
16 86 144
16 87 205
16 88 244
16 89 56
16 90 247
17 18 76
17 19 211
17 20 3
17 21 31
17 22 217
17 23 74
17 24 41
17 25 246
17 26 106
17 27 207
17 28 220
17 29 50
17 30 64
17 31 88
17 32 18
17 33 44
17 34 220
17 35 144
17 36 216
17 37 18
17 38 132
17 39 104
17 40 166
17 41 226
17 42 100
17 43 220
17 44 47
17 45 23
17 46 267
17 47 246
17 48 241
17 49 16
17 50 262
17 51 208
17 52 268
17 53 207
17 54 161
17 55 77
17 56 99
17 57 75
17 58 74
17 59 240
17 60 178
17 61 192
17 62 113
17 63 30
17 64 95
17 65 173
17 66 78
17 67 36
17 68 155
17 69 111
17 70 203
17 71 66
17 72 66
17 73 28
17 74 248
17 75 71
17 76 47
17 77 33
17 78 52
17 79 34
17 80 70
17 81 212
17 82 11
17 83 213
17 84 160
17 85 264
17 86 114
17 87 76
17 88 116
17 89 214
17 90 97
18 19 105
18 20 18
18 21 139
18 22 41
18 23 259
18 24 99
18 25 122
18 26 189
18 27 258
18 28 186
18 29 237
18 30 198
18 31 257
18 32 148
18 33 168
18 34 68
18 35 27
18 36 173
18 37 93
18 38 154
18 39 180
18 40 167
18 41 96
18 42 45
18 43 166
18 44 42
18 45 32
18 46 165
18 47 215
18 48 152
18 49 43
18 50 258
18 51 214
18 52 34
18 53 242
18 54 29
18 55 33
18 56 41
18 57 54
18 58 261
18 59 110
18 60 49
18 61 80
18 62 195
18 63 85
18 64 35
18 65 99
18 66 245
18 67 137
18 68 121
18 69 111
18 70 243
18 71 134
18 72 196
18 73 251
18 74 4
18 75 110
18 76 43
18 77 186
18 78 230
18 79 218
18 80 200
18 81 53
18 82 166
18 83 128
18 84 159
18 85 255
18 86 267
18 87 268
18 88 150
18 89 95
18 90 208
19 20 18
19 21 126
19 22 136
19 23 117
19 24 252
19 25 161
19 26 242
19 27 70
19 28 267
19 29 174
19 30 15
19 31 48
19 32 91
19 33 96
19 34 6
19 35 84
19 36 146
19 37 5
19 38 167
19 39 62
19 40 265
19 41 25
19 42 198
19 43 244
19 44 121
19 45 167
19 46 202
19 47 149
19 48 251
19 49 124
19 50 107
19 51 185
19 52 229
19 53 206
19 54 75
19 55 83
19 56 188
19 57 195
19 58 268
19 59 214
19 60 105
19 61 103
19 62 119
19 63 152
19 64 105
19 65 40
19 66 17
19 67 121
19 68 28
19 69 122
19 70 224
19 71 80
19 72 181
19 73 172
19 74 96
19 75 54
19 76 17
19 77 96
19 78 132
19 79 37
19 80 256
19 81 64
19 82 243
19 83 106
19 84 190
19 85 8
19 86 103
19 87 154
19 88 87
19 89 140
19 90 173
20 21 15
20 22 47
20 23 222
20 24 42
20 25 21
20 26 70
20 27 187
20 28 5
20 29 241
20 30 172
20 31 99
20 32 46
20 33 87
20 34 129
20 35 13
20 36 214
20 37 227
20 38 71
20 39 36
20 40 24
20 41 30
20 42 66
20 43 224
20 44 255
20 45 197
20 46 50
20 47 222
20 48 95
20 49 128
20 50 171
20 51 12
20 52 84
20 53 223
20 54 118
20 55 9
20 56 156
20 57 263
20 58 227
20 59 26
20 60 238
20 61 78
20 62 10
20 63 203
20 64 22
20 65 158
20 66 194
20 67 98
20 68 254
20 69 122
20 70 184
20 71 24
20 72 52
20 73 125
20 74 111
20 75 96
20 76 140
20 77 260
20 78 79
20 79 89
20 80 97
20 81 241
20 82 166
20 83 76
20 84 188
20 85 242
20 86 94
20 87 239
20 88 268
20 89 96
20 90 158
21 22 167
21 23 207
21 24 256
21 25 5
21 26 192
21 27 161
21 28 165
21 29 257
21 30 107
21 31 127
21 32 113
21 33 17
21 34 214
21 35 97
21 36 237
21 37 82
21 38 238
21 39 0
21 40 168
21 41 35
21 42 2
21 43 92
21 44 134
21 45 176
21 46 85
21 47 247
21 48 168
21 49 149
21 50 41
21 51 139
21 52 176
21 53 68
21 54 29
21 55 138
21 56 97
21 57 86
21 58 69
21 59 260
21 60 155
21 61 192
21 62 191
21 63 68
21 64 227
21 65 103
21 66 198
21 67 36
21 68 88
21 69 192
21 70 19
21 71 64
21 72 179
21 73 58
21 74 257
21 75 155
21 76 201
21 77 183
21 78 21
21 79 121
21 80 74
21 81 83
21 82 230
21 83 264
21 84 12
21 85 176
21 86 265
21 87 141
21 88 251
21 89 190
21 90 66
22 23 144
22 24 88
22 25 257
22 26 207
22 27 44
22 28 79
22 29 85
22 30 198
22 31 43
22 32 107
22 33 176
22 34 85
22 35 162
22 36 126
22 37 29
22 38 264
22 39 130
22 40 200
22 41 77
22 42 136
22 43 184
22 44 190
22 45 28
22 46 25
22 47 94
22 48 86
22 49 211
22 50 147
22 51 244
22 52 207
22 53 206
22 54 41
22 55 205
22 56 39
22 57 217
22 58 23
22 59 246
22 60 134
22 61 42
22 62 48
22 63 100
22 64 105
22 65 137
22 66 198
22 67 22
22 68 122
22 69 110
22 70 264
22 71 253
22 72 193
22 73 42
22 74 240
22 75 32
22 76 13
22 77 49
22 78 20
22 79 192
22 80 228
22 81 226
22 82 210
22 83 18
22 84 142
22 85 227
22 86 208
22 87 250
22 88 50
22 89 263
22 90 241
23 24 174
23 25 77
23 26 18
23 27 244
23 28 118
23 29 116
23 30 136
23 31 147
23 32 83
23 33 185
23 34 239
23 35 80
23 36 265
23 37 243
23 38 103
23 39 39
23 40 160
23 41 150
23 42 77
23 43 228
23 44 65
23 45 228
23 46 134
23 47 5
23 48 157
23 49 20
23 50 105
23 51 47
23 52 25
23 53 30
23 54 144
23 55 81
23 56 53
23 57 163
23 58 0
23 59 120
23 60 54
23 61 69
23 62 46
23 63 55
23 64 210
23 65 94
23 66 251
23 67 124
23 68 100
23 69 19
23 70 196
23 71 3
23 72 227
23 73 35
23 74 166
23 75 127
23 76 99
23 77 264
23 78 259
23 79 68
23 80 43
23 81 233
23 82 77
23 83 157
23 84 94
23 85 162
23 86 241
23 87 255
23 88 254
23 89 174
23 90 147
24 25 93
24 26 108
24 27 155
24 28 77
24 29 44
24 30 141
24 31 99
24 32 45
24 33 45
24 34 127
24 35 45
24 36 62
24 37 112
24 38 246
24 39 241
24 40 131
24 41 16
24 42 232
24 43 120
24 44 256
24 45 132
24 46 117
24 47 96
24 48 135
24 49 164
24 50 267
24 51 160
24 52 23
24 53 246
24 54 10
24 55 19
24 56 160
24 57 107
24 58 215
24 59 162
24 60 82
24 61 245
24 62 58
24 63 247
24 64 84
24 65 23
24 66 141
24 67 189
24 68 174
24 69 106
24 70 267
24 71 268
24 72 61
24 73 51
24 74 23
24 75 28
24 76 4
24 77 60
24 78 44
24 79 161
24 80 131
24 81 46
24 82 183
24 83 30
24 84 79
24 85 201
24 86 70
24 87 17
24 88 49
24 89 99
24 90 154
25 26 43
25 27 105
25 28 230
25 29 154
25 30 138
25 31 169
25 32 95
25 33 179
25 34 219
25 35 16
25 36 64
25 37 252
25 38 69
25 39 29
25 40 243
25 41 236
25 42 8
25 43 155
25 44 27
25 45 161
25 46 30
25 47 63
25 48 108
25 49 173
25 50 79
25 51 40
25 52 94
25 53 151
25 54 4
25 55 60
25 56 124
25 57 61
25 58 131
25 59 141
25 60 158
25 61 127
25 62 233
25 63 77
25 64 45
25 65 153
25 66 29
25 67 66
25 68 122
25 69 212
25 70 140
25 71 76
25 72 26
25 73 122
25 74 23
25 75 167
25 76 260
25 77 36
25 78 179
25 79 210
25 80 160
25 81 77
25 82 47
25 83 64
25 84 14
25 85 62
25 86 70
25 87 116
25 88 62
25 89 211
25 90 96
26 27 267
26 28 263
26 29 244
26 30 17
26 31 62
26 32 218
26 33 229
26 34 185
26 35 141
26 36 46
26 37 19
26 38 35
26 39 216
26 40 53
26 41 22
26 42 200
26 43 92
26 44 108
26 45 132
26 46 230
26 47 98
26 48 104
26 49 151
26 50 90
26 51 120
26 52 184
26 53 108
26 54 8
26 55 182
26 56 61
26 57 87
26 58 63
26 59 4
26 60 246
26 61 98
26 62 215
26 63 41
26 64 26
26 65 182
26 66 105
26 67 105
26 68 86
26 69 183
26 70 145
26 71 32
26 72 2
26 73 130
26 74 89
26 75 235
26 76 159
26 77 222
26 78 193
26 79 105
26 80 184
26 81 51
26 82 86
26 83 155
26 84 149
26 85 199
26 86 262
26 87 117
26 88 60
26 89 263
26 90 56
27 28 212
27 29 71
27 30 90
27 31 67
27 32 193
27 33 236
27 34 7
27 35 238
27 36 226
27 37 254
27 38 17
27 39 75
27 40 155
27 41 46
27 42 27
27 43 233
27 44 40
27 45 170
27 46 259
27 47 0
27 48 178
27 49 54
27 50 178
27 51 143
27 52 191
27 53 252
27 54 103
27 55 241
27 56 63
27 57 139
27 58 250
27 59 264
27 60 122
27 61 216
27 62 63
27 63 228
27 64 226
27 65 127
27 66 79
27 67 136
27 68 101
27 69 169
27 70 111
27 71 233
27 72 248
27 73 109
27 74 23
27 75 221
27 76 141
27 77 209
27 78 7
27 79 41
27 80 64
27 81 48
27 82 139
27 83 138
27 84 43
27 85 260
27 86 114
27 87 63
27 88 61
27 89 68
27 90 93
28 29 261
28 30 26
28 31 133
28 32 28
28 33 37
28 34 93
28 35 228
28 36 68
28 37 165
28 38 79
28 39 130
28 40 163
28 41 119
28 42 206
28 43 239
28 44 254
28 45 252
28 46 259
28 47 133
28 48 10
28 49 52
28 50 53
28 51 181
28 52 255
28 53 8
28 54 203
28 55 268
28 56 41
28 57 69
28 58 52
28 59 178
28 60 46
28 61 32
28 62 129
28 63 86
28 64 60
28 65 188
28 66 227
28 67 8
28 68 215
28 69 202
28 70 211
28 71 216
28 72 56
28 73 259
28 74 69
28 75 245
28 76 168
28 77 161
28 78 266
28 79 98
28 80 178
28 81 23
28 82 163
28 83 220
28 84 198
28 85 99
28 86 116
28 87 144
28 88 27
28 89 40
28 90 215
29 30 156
29 31 61
29 32 255
29 33 199
29 34 117
29 35 113
29 36 66
29 37 222
29 38 2
29 39 248
29 40 269
29 41 22
29 42 64
29 43 156
29 44 94
29 45 269
29 46 114
29 47 90
29 48 132
29 49 121
29 50 256
29 51 171
29 52 145
29 53 200
29 54 167
29 55 16
29 56 186
29 57 19
29 58 37
29 59 143
29 60 240
29 61 27
29 62 125
29 63 133
29 64 240
29 65 119
29 66 269
29 67 154
29 68 120
29 69 66
29 70 158
29 71 197
29 72 46
29 73 225
29 74 215
29 75 150
29 76 117
29 77 149
29 78 84
29 79 110
29 80 160
29 81 239
29 82 107
29 83 24
29 84 139
29 85 137
29 86 213
29 87 105
29 88 234
29 89 92
29 90 199
30 31 39
30 32 28
30 33 140
30 34 253
30 35 174
30 36 30
30 37 95
30 38 127
30 39 79
30 40 135
30 41 170
30 42 216
30 43 20
30 44 102
30 45 153
30 46 253
30 47 196
30 48 201
30 49 38
30 50 181
30 51 83
30 52 87
30 53 267
30 54 191
30 55 154
30 56 188
30 57 217
30 58 130
30 59 64
30 60 188
30 61 180
30 62 6
30 63 204
30 64 193
30 65 232
30 66 134
30 67 20
30 68 176
30 69 194
30 70 139
30 71 20
30 72 98
30 73 224
30 74 189
30 75 33
30 76 126
30 77 82
30 78 58
30 79 247
30 80 106
30 81 40
30 82 3
30 83 138
30 84 257
30 85 244
30 86 73
30 87 139
30 88 116
30 89 163
30 90 184
31 32 106
31 33 135
31 34 33
31 35 42
31 36 52
31 37 121
31 38 153
31 39 91
31 40 240
31 41 212
31 42 221
31 43 151
31 44 32
31 45 136
31 46 206
31 47 263
31 48 256
31 49 253
31 50 27
31 51 21
31 52 49
31 53 156
31 54 206
31 55 230
31 56 209
31 57 160
31 58 64
31 59 149
31 60 243
31 61 37
31 62 122
31 63 179
31 64 142
31 65 63
31 66 256
31 67 221
31 68 74
31 69 100
31 70 199
31 71 201
31 72 75
31 73 200
31 74 9
31 75 214
31 76 60
31 77 260
31 78 171
31 79 140
31 80 180
31 81 81
31 82 69
31 83 111
31 84 77
31 85 85
31 86 72
31 87 265
31 88 88
31 89 31
31 90 232
32 33 152
32 34 36
32 35 103
32 36 124
32 37 186
32 38 149
32 39 183
32 40 48
32 41 175
32 42 28
32 43 187
32 44 228
32 45 21
32 46 50
32 47 100
32 48 188
32 49 178
32 50 196
32 51 195
32 52 129
32 53 2
32 54 181
32 55 131
32 56 55
32 57 114
32 58 199
32 59 9
32 60 163
32 61 8
32 62 160
32 63 10
32 64 46
32 65 155
32 66 151
32 67 27
32 68 221
32 69 221
32 70 22
32 71 86
32 72 183
32 73 70
32 74 174
32 75 97
32 76 168
32 77 110
32 78 182
32 79 62
32 80 90
32 81 265
32 82 197
32 83 67
32 84 233
32 85 14
32 86 24
32 87 172
32 88 108
32 89 46
32 90 60
33 34 58
33 35 236
33 36 215
33 37 202
33 38 217
33 39 86
33 40 167
33 41 80
33 42 207
33 43 226
33 44 88
33 45 58
33 46 108
33 47 168
33 48 186
33 49 94
33 50 118
33 51 31
33 52 192
33 53 195
33 54 174
33 55 254
33 56 61
33 57 99
33 58 156
33 59 53
33 60 158
33 61 99
33 62 96
33 63 62
33 64 97
33 65 212
33 66 54
33 67 180
33 68 20
33 69 10
33 70 246
33 71 115
33 72 158
33 73 21
33 74 180
33 75 227
33 76 114
33 77 230
33 78 169
33 79 112
33 80 144
33 81 213
33 82 42
33 83 130
33 84 119
33 85 97
33 86 148
33 87 146
33 88 101
33 89 193
33 90 264
34 35 263
34 36 111
34 37 125
34 38 260
34 39 91
34 40 121
34 41 116
34 42 209
34 43 87
34 44 206
34 45 127
34 46 85
34 47 203
34 48 107
34 49 59
34 50 32
34 51 222
34 52 106
34 53 152
34 54 238
34 55 134
34 56 190
34 57 59
34 58 180
34 59 64
34 60 118
34 61 177
34 62 196
34 63 240
34 64 196
34 65 171
34 66 180
34 67 19
34 68 22
34 69 179
34 70 141
34 71 230
34 72 263
34 73 168
34 74 166
34 75 64
34 76 58
34 77 157
34 78 174
34 79 154
34 80 53
34 81 25
34 82 131
34 83 153
34 84 203
34 85 265
34 86 231
34 87 74
34 88 60
34 89 34
34 90 73
35 36 143
35 37 28
35 38 0
35 39 66
35 40 65
35 41 180
35 42 156
35 43 231
35 44 168
35 45 222
35 46 129
35 47 153
35 48 251
35 49 49
35 50 154
35 51 96
35 52 248
35 53 156
35 54 191
35 55 257
35 56 223
35 57 185
35 58 89
35 59 137
35 60 246
35 61 101
35 62 247
35 63 220
35 64 236
35 65 132
35 66 146
35 67 31
35 68 43
35 69 115
35 70 258
35 71 126
35 72 5
35 73 187
35 74 62
35 75 222
35 76 183
35 77 94
35 78 34
35 79 129
35 80 75
35 81 33
35 82 68
35 83 266
35 84 19
35 85 94
35 86 164
35 87 85
35 88 91
35 89 125
35 90 134
36 37 123
36 38 92
36 39 265
36 40 117
36 41 31
36 42 248
36 43 28
36 44 78
36 45 130
36 46 180
36 47 169
36 48 109
36 49 47
36 50 210
36 51 116
36 52 220
36 53 222
36 54 77
36 55 124
36 56 12
36 57 20
36 58 200
36 59 63
36 60 43
36 61 48
36 62 63
36 63 176
36 64 37
36 65 108
36 66 81
36 67 142
36 68 249
36 69 115
36 70 88
36 71 253
36 72 230
36 73 69
36 74 232
36 75 160
36 76 194
36 77 116
36 78 90
36 79 173
36 80 195
36 81 124
36 82 227
36 83 161
36 84 241
36 85 45
36 86 119
36 87 153
36 88 201
36 89 59
36 90 105
37 38 137
37 39 182
37 40 70
37 41 207
37 42 142
37 43 1
37 44 7
37 45 183
37 46 174
37 47 11
37 48 45
37 49 15
37 50 241
37 51 112
37 52 170
37 53 17
37 54 192
37 55 5
37 56 232
37 57 242
37 58 233
37 59 234
37 60 174
37 61 50
37 62 92
37 63 69
37 64 112
37 65 183
37 66 39
37 67 39
37 68 108
37 69 139
37 70 264
37 71 121
37 72 120
37 73 160
37 74 232
37 75 168
37 76 121
37 77 201
37 78 73
37 79 15
37 80 71
37 81 109
37 82 108
37 83 19
37 84 137
37 85 214
37 86 191
37 87 184
37 88 66
37 89 61
37 90 221
38 39 11
38 40 117
38 41 25
38 42 191
38 43 89
38 44 71
38 45 68
38 46 188
38 47 256
38 48 10
38 49 267
38 50 176
38 51 146
38 52 59
38 53 238
38 54 26
38 55 231
38 56 52
38 57 31
38 58 17
38 59 205
38 60 212
38 61 212
38 62 227
38 63 124
38 64 15
38 65 233
38 66 184
38 67 213
38 68 48
38 69 195
38 70 50
38 71 49
38 72 182
38 73 252
38 74 246
38 75 83
38 76 76
38 77 170
38 78 11
38 79 205
38 80 105
38 81 86
38 82 108
38 83 129
38 84 206
38 85 242
38 86 9
38 87 119
38 88 111
38 89 250
38 90 10
39 40 117
39 41 14
39 42 3
39 43 98
39 44 155
39 45 240
39 46 129
39 47 161
39 48 205
39 49 91
39 50 88
39 51 174
39 52 265
39 53 105
39 54 23
39 55 130
39 56 79
39 57 250
39 58 156
39 59 151
39 60 135
39 61 198
39 62 183
39 63 99
39 64 193
39 65 205
39 66 187
39 67 196
39 68 167
39 69 255
39 70 179
39 71 138
39 72 135
39 73 69
39 74 261
39 75 119
39 76 82
39 77 3
39 78 235
39 79 90
39 80 246
39 81 14
39 82 197
39 83 165
39 84 37
39 85 24
39 86 95
39 87 36
39 88 188
39 89 138
39 90 225
40 41 6
40 42 161
40 43 261
40 44 65
40 45 240
40 46 178
40 47 53
40 48 254
40 49 190
40 50 139
40 51 91
40 52 124
40 53 97
40 54 164
40 55 266
40 56 28
40 57 106
40 58 176
40 59 68
40 60 188
40 61 12
40 62 92
40 63 113
40 64 183
40 65 129
40 66 243
40 67 170
40 68 223
40 69 60
40 70 261
40 71 91
40 72 38
40 73 80
40 74 144
40 75 258
40 76 11
40 77 27
40 78 200
40 79 65
40 80 237
40 81 143
40 82 168
40 83 193
40 84 141
40 85 75
40 86 209
40 87 78
40 88 72
40 89 44
40 90 5
41 42 175
41 43 101
41 44 81
41 45 232
41 46 87
41 47 122
41 48 161
41 49 169
41 50 262
41 51 154
41 52 151
41 53 188
41 54 186
41 55 154
41 56 113
41 57 162
41 58 92
41 59 136
41 60 239
41 61 55
41 62 119
41 63 268
41 64 73
41 65 63
41 66 202
41 67 122
41 68 260
41 69 214
41 70 160
41 71 62
41 72 21
41 73 14
41 74 101
41 75 0
41 76 16
41 77 101
41 78 138
41 79 14
41 80 238
41 81 254
41 82 20
41 83 105
41 84 147
41 85 144
41 86 63
41 87 43
41 88 25
41 89 176
41 90 262
42 43 199
42 44 128
42 45 10
42 46 60
42 47 235
42 48 177
42 49 38
42 50 267
42 51 108
42 52 128
42 53 150
42 54 235
42 55 182
42 56 155
42 57 86
42 58 165
42 59 59
42 60 25
42 61 257
42 62 111
42 63 7
42 64 99
42 65 203
42 66 124
42 67 243
42 68 161
42 69 185
42 70 29
42 71 59
42 72 65
42 73 218
42 74 249
42 75 253
42 76 200
42 77 169
42 78 54
42 79 119
42 80 233
42 81 155
42 82 212
42 83 16
42 84 210
42 85 48
42 86 91
42 87 167
42 88 243
42 89 265
42 90 117
43 44 155
43 45 58
43 46 196
43 47 86
43 48 229
43 49 195
43 50 106
43 51 8
43 52 158
43 53 106
43 54 179
43 55 6
43 56 145
43 57 252
43 58 141
43 59 34
43 60 66
43 61 89
43 62 61
43 63 251
43 64 192
43 65 123
43 66 20
43 67 17
43 68 1
43 69 135
43 70 87
43 71 159
43 72 232
43 73 105
43 74 109
43 75 144
43 76 27
43 77 269
43 78 192
43 79 100
43 80 150
43 81 126
43 82 46
43 83 184
43 84 116
43 85 211
43 86 209
43 87 143
43 88 224
43 89 93
43 90 243
44 45 68
44 46 130
44 47 34
44 48 170
44 49 165
44 50 117
44 51 230
44 52 185
44 53 17
44 54 261
44 55 197
44 56 171
44 57 85
44 58 91
44 59 228
44 60 13
44 61 214
44 62 102
44 63 212
44 64 67
44 65 147
44 66 143
44 67 170
44 68 64
44 69 75
44 70 242
44 71 173
44 72 180
44 73 237
44 74 219
44 75 79
44 76 172
44 77 206
44 78 200
44 79 61
44 80 258
44 81 44
44 82 7
44 83 39
44 84 104
44 85 259
44 86 51
44 87 130
44 88 251
44 89 211
44 90 193
45 46 262
45 47 142
45 48 201
45 49 267
45 50 50
45 51 193
45 52 120
45 53 17
45 54 247
45 55 105
45 56 151
45 57 143
45 58 124
45 59 170
45 60 175
45 61 180
45 62 24
45 63 120
45 64 28
45 65 252
45 66 53
45 67 176
45 68 200
45 69 11
45 70 6
45 71 261
45 72 34
45 73 174
45 74 266
45 75 239
45 76 243
45 77 51
45 78 247
45 79 230
45 80 137
45 81 30
45 82 189
45 83 255
45 84 221
45 85 255
45 86 261
45 87 144
45 88 3
45 89 154
45 90 135
46 47 106
46 48 78
46 49 228
46 50 252
46 51 11
46 52 169
46 53 153
46 54 197
46 55 195
46 56 103
46 57 54
46 58 115
46 59 235
46 60 257
46 61 107
46 62 231
46 63 99
46 64 256
46 65 170
46 66 25
46 67 36
46 68 168
46 69 175
46 70 158
46 71 239
46 72 78
46 73 85
46 74 161
46 75 110
46 76 109
46 77 38
46 78 14
46 79 202
46 80 146
46 81 158
46 82 217
46 83 106
46 84 87
46 85 39
46 86 123
46 87 187
46 88 56
46 89 191
46 90 248
47 48 198
47 49 196
47 50 61
47 51 138
47 52 172
47 53 38
47 54 37
47 55 234
47 56 211
47 57 265
47 58 213
47 59 226
47 60 168
47 61 107
47 62 35
47 63 10
47 64 221
47 65 19
47 66 92
47 67 29
47 68 101
47 69 92
47 70 98
47 71 269
47 72 268
47 73 233
47 74 57
47 75 79
47 76 150
47 77 2
47 78 100
47 79 71
47 80 58
47 81 62
47 82 263
47 83 60
47 84 207
47 85 237
47 86 3
47 87 44
47 88 157
47 89 247
47 90 169
48 49 145
48 50 18
48 51 218
48 52 42
48 53 103
48 54 133
48 55 46
48 56 1
48 57 147
48 58 158
48 59 241
48 60 147
48 61 202
48 62 28
48 63 162
48 64 3
48 65 194
48 66 145
48 67 0
48 68 63
48 69 268
48 70 105
48 71 253
48 72 24
48 73 17
48 74 145
48 75 226
48 76 111
48 77 105
48 78 198
48 79 109
48 80 8
48 81 50
48 82 175
48 83 188
48 84 42
48 85 266
48 86 103
48 87 159
48 88 110
48 89 204
48 90 8
49 50 69
49 51 256
49 52 232
49 53 37
49 54 235
49 55 235
49 56 237
49 57 150
49 58 204
49 59 213
49 60 125
49 61 116
49 62 7
49 63 2
49 64 199
49 65 196
49 66 246
49 67 245
49 68 14
49 69 140
49 70 116
49 71 190
49 72 79
49 73 40
49 74 34
49 75 132
49 76 233
49 77 160
49 78 35
49 79 164
49 80 222
49 81 106
49 82 121
49 83 103
49 84 102
49 85 222
49 86 255
49 87 58
49 88 264
49 89 236
49 90 173
50 51 228
50 52 212
50 53 26
50 54 11
50 55 106
50 56 45
50 57 156
50 58 73
50 59 146
50 60 60
50 61 5
50 62 115
50 63 186
50 64 134
50 65 192
50 66 9
50 67 85
50 68 238
50 69 7
50 70 142
50 71 235
50 72 186
50 73 54
50 74 87
50 75 75
50 76 220
50 77 129
50 78 69
50 79 15
50 80 96
50 81 194
50 82 33
50 83 26
50 84 218
50 85 230
50 86 190
50 87 53
50 88 17
50 89 222
50 90 146
51 52 120
51 53 22
51 54 32
51 55 192
51 56 83
51 57 255
51 58 236
51 59 161
51 60 236
51 61 181
51 62 146
51 63 206
51 64 235
51 65 136
51 66 86
51 67 190
51 68 108
51 69 75
51 70 132
51 71 15
51 72 140
51 73 176
51 74 242
51 75 153
51 76 178
51 77 148
51 78 57
51 79 161
51 80 112
51 81 11
51 82 177
51 83 28
51 84 224
51 85 256
51 86 202
51 87 94
51 88 68
51 89 43
51 90 12
52 53 216
52 54 18
52 55 202
52 56 130
52 57 90
52 58 266
52 59 87
52 60 226
52 61 53
52 62 143
52 63 51
52 64 13
52 65 63
52 66 228
52 67 0
52 68 28
52 69 204
52 70 17
52 71 42
52 72 34
52 73 248
52 74 74
52 75 131
52 76 111
52 77 112
52 78 197
52 79 9
52 80 29
52 81 82
52 82 107
52 83 115
52 84 209
52 85 199
52 86 102
52 87 19
52 88 189
52 89 75
52 90 152
53 54 106
53 55 142
53 56 254
53 57 247
53 58 85
53 59 142
53 60 228
53 61 220
53 62 227
53 63 236
53 64 91
53 65 259
53 66 24
53 67 202
53 68 108
53 69 112
53 70 220
53 71 48
53 72 129
53 73 231
53 74 114
53 75 239
53 76 135
53 77 195
53 78 142
53 79 136
53 80 85
53 81 241
53 82 174
53 83 2
53 84 170
53 85 187
53 86 64
53 87 164
53 88 14
53 89 261
53 90 251
54 55 25
54 56 0
54 57 201
54 58 109
54 59 148
54 60 158
54 61 45
54 62 40
54 63 118
54 64 134
54 65 23
54 66 2
54 67 178
54 68 202
54 69 185
54 70 191
54 71 72
54 72 219
54 73 17
54 74 110
54 75 240
54 76 90
54 77 202
54 78 260
54 79 144
54 80 129
54 81 165
54 82 187
54 83 106
54 84 6
54 85 19
54 86 47
54 87 138
54 88 155
54 89 193
54 90 218
55 56 254
55 57 212
55 58 224
55 59 153
55 60 213
55 61 148
55 62 173
55 63 65
55 64 232
55 65 172
55 66 65
55 67 64
55 68 169
55 69 264
55 70 3
55 71 180
55 72 268
55 73 136
55 74 82
55 75 62
55 76 91
55 77 115
55 78 259
55 79 140
55 80 19
55 81 17
55 82 111
55 83 103
55 84 264
55 85 102
55 86 54
55 87 23
55 88 258
55 89 243
55 90 179
56 57 4
56 58 91
56 59 234
56 60 137
56 61 225
56 62 207
56 63 239
56 64 61
56 65 218
56 66 264
56 67 228
56 68 76
56 69 260
56 70 172
56 71 211
56 72 30
56 73 164
56 74 173
56 75 154
56 76 170
56 77 50
56 78 143
56 79 212
56 80 109
56 81 16
56 82 55
56 83 183
56 84 262
56 85 254
56 86 90
56 87 141
56 88 7
56 89 254
56 90 158
57 58 196
57 59 66
57 60 16
57 61 146
57 62 14
57 63 78
57 64 81
57 65 3
57 66 220
57 67 117
57 68 168
57 69 8
57 70 111
57 71 231
57 72 245
57 73 18
57 74 197
57 75 166
57 76 113
57 77 153
57 78 1
57 79 9
57 80 152
57 81 135
57 82 112
57 83 247
57 84 90
57 85 72
57 86 128
57 87 158
57 88 80
57 89 127
57 90 141
58 59 68
58 60 240
58 61 25
58 62 158
58 63 243
58 64 39
58 65 80
58 66 33
58 67 34
58 68 119
58 69 7
58 70 41
58 71 221
58 72 217
58 73 169
58 74 247
58 75 250
58 76 155
58 77 123
58 78 23
58 79 89
58 80 165
58 81 196
58 82 176
58 83 38
58 84 161
58 85 252
58 86 256
58 87 7
58 88 193
58 89 183
58 90 253
59 60 186
59 61 37
59 62 55
59 63 111
59 64 5
59 65 125
59 66 83
59 67 245
59 68 86
59 69 133
59 70 43
59 71 25
59 72 248
59 73 251
59 74 206
59 75 156
59 76 267
59 77 103
59 78 4
59 79 198
59 80 218
59 81 150
59 82 137
59 83 128
59 84 123
59 85 210
59 86 185
59 87 217
59 88 85
59 89 66
59 90 164
60 61 89
60 62 217
60 63 238
60 64 210
60 65 170
60 66 209
60 67 14
60 68 219
60 69 81
60 70 54
60 71 75
60 72 156
60 73 51
60 74 4
60 75 209
60 76 227
60 77 1
60 78 136
60 79 62
60 80 93
60 81 89
60 82 74
60 83 65
60 84 78
60 85 108
60 86 32
60 87 3
60 88 113
60 89 138
60 90 117
61 62 74
61 63 83
61 64 252
61 65 24
61 66 230
61 67 128
61 68 60
61 69 183
61 70 244
61 71 187
61 72 195
61 73 225
61 74 197
61 75 85
61 76 42
61 77 167
61 78 65
61 79 197
61 80 132
61 81 142
61 82 188
61 83 223
61 84 118
61 85 27
61 86 202
61 87 63
61 88 186
61 89 244
61 90 3
62 63 269
62 64 172
62 65 162
62 66 223
62 67 2
62 68 190
62 69 156
62 70 168
62 71 100
62 72 127
62 73 4
62 74 45
62 75 262
62 76 0
62 77 147
62 78 264
62 79 167
62 80 93
62 81 107
62 82 108
62 83 142
62 84 46
62 85 103
62 86 80
62 87 142
62 88 108
62 89 200
62 90 123
63 64 58
63 65 149
63 66 93
63 67 20
63 68 225
63 69 217
63 70 54
63 71 159
63 72 25
63 73 266
63 74 267
63 75 158
63 76 110
63 77 176
63 78 201
63 79 148
63 80 206
63 81 258
63 82 185
63 83 10
63 84 109
63 85 113
63 86 2
63 87 95
63 88 150
63 89 47
63 90 27
64 65 27
64 66 222
64 67 27
64 68 196
64 69 57
64 70 25
64 71 137
64 72 177
64 73 58
64 74 167
64 75 51
64 76 182
64 77 133
64 78 249
64 79 89
64 80 156
64 81 267
64 82 97
64 83 241
64 84 184
64 85 33
64 86 160
64 87 120
64 88 33
64 89 38
64 90 210
65 66 59
65 67 58
65 68 104
65 69 260
65 70 216
65 71 119
65 72 61
65 73 256
65 74 84
65 75 246
65 76 173
65 77 200
65 78 190
65 79 111
65 80 269
65 81 74
65 82 106
65 83 238
65 84 97
65 85 24
65 86 254
65 87 240
65 88 23
65 89 264
65 90 33
66 67 81
66 68 140
66 69 168
66 70 17
66 71 78
66 72 240
66 73 15
66 74 235
66 75 160
66 76 80
66 77 51
66 78 0
66 79 124
66 80 47
66 81 74
66 82 222
66 83 39
66 84 10
66 85 165
66 86 111
66 87 229
66 88 40
66 89 164
66 90 78
67 68 122
67 69 78
67 70 69
67 71 133
67 72 166
67 73 190
67 74 143
67 75 249
67 76 131
67 77 90
67 78 173
67 79 1
67 80 240
67 81 256
67 82 141
67 83 104
67 84 106
67 85 222
67 86 40
67 87 102
67 88 17
67 89 133
67 90 251
68 69 108
68 70 22
68 71 226
68 72 249
68 73 127
68 74 52
68 75 254
68 76 46
68 77 228
68 78 166
68 79 217
68 80 61
68 81 31
68 82 41
68 83 141
68 84 42
68 85 128
68 86 127
68 87 84
68 88 38
68 89 242
68 90 36
69 70 117
69 71 221
69 72 11
69 73 148
69 74 39
69 75 117
69 76 204
69 77 269
69 78 122
69 79 70
69 80 91
69 81 98
69 82 85
69 83 264
69 84 168
69 85 214
69 86 190
69 87 2
69 88 148
69 89 257
69 90 205
70 71 85
70 72 196
70 73 229
70 74 81
70 75 163
70 76 150
70 77 98
70 78 138
70 79 25
70 80 12
70 81 79
70 82 6
70 83 231
70 84 205
70 85 140
70 86 222
70 87 136
70 88 1
70 89 131
70 90 1
71 72 21
71 73 84
71 74 20
71 75 120
71 76 18
71 77 84
71 78 110
71 79 81
71 80 116
71 81 250
71 82 56
71 83 2
71 84 223
71 85 112
71 86 264
71 87 32
71 88 103
71 89 31
71 90 9
72 73 26
72 74 71
72 75 91
72 76 186
72 77 29
72 78 198
72 79 220
72 80 40
72 81 118
72 82 18
72 83 127
72 84 202
72 85 47
72 86 178
72 87 108
72 88 91
72 89 80
72 90 217
73 74 11
73 75 22
73 76 10
73 77 100
73 78 173
73 79 239
73 80 8
73 81 17
73 82 82
73 83 140
73 84 246
73 85 211
73 86 189
73 87 188
73 88 69
73 89 104
73 90 259
74 75 212
74 76 264
74 77 221
74 78 123
74 79 136
74 80 169
74 81 235
74 82 50
74 83 156
74 84 236
74 85 178
74 86 175
74 87 35
74 88 120
74 89 206
74 90 52
75 76 256
75 77 19
75 78 252
75 79 58
75 80 63
75 81 8
75 82 260
75 83 236
75 84 226
75 85 64
75 86 169
75 87 24
75 88 248
75 89 150
75 90 45
76 77 106
76 78 191
76 79 163
76 80 152
76 81 96
76 82 234
76 83 169
76 84 122
76 85 268
76 86 181
76 87 198
76 88 65
76 89 138
76 90 219
77 78 13
77 79 216
77 80 239
77 81 45
77 82 115
77 83 34
77 84 255
77 85 148
77 86 263
77 87 109
77 88 53
77 89 167
77 90 47
78 79 225
78 80 11
78 81 228
78 82 44
78 83 63
78 84 94
78 85 175
78 86 91
78 87 102
78 88 157
78 89 216
78 90 156
79 80 194
79 81 76
79 82 44
79 83 187
79 84 54
79 85 179
79 86 189
79 87 27
79 88 251
79 89 40
79 90 201
80 81 41
80 82 212
80 83 86
80 84 172
80 85 44
80 86 168
80 87 194
80 88 120
80 89 227
80 90 106
81 82 206
81 83 222
81 84 77
81 85 115
81 86 149
81 87 253
81 88 172
81 89 205
81 90 238
82 83 132
82 84 217
82 85 33
82 86 160
82 87 42
82 88 128
82 89 136
82 90 128
83 84 250
83 85 103
83 86 80
83 87 230
83 88 0
83 89 79
83 90 40
84 85 259
84 86 180
84 87 256
84 88 257
84 89 144
84 90 204
85 86 253
85 87 5
85 88 158
85 89 205
85 90 151
86 87 83
86 88 198
86 89 209
86 90 168
87 88 263
87 89 254
87 90 233
88 89 122
88 90 218
89 90 148
